NAME 
ROWS
 N  OBJ
 L  R0      
 L  R1      
 E  R2      
 E  R3      
 E  R4      
 E  R5      
 E  R6      
 E  R7      
 E  R8      
 E  R9      
 E  R10     
 E  R11     
 E  R12     
 E  R13     
 E  R14     
 E  R15     
 E  R16     
 E  R17     
 E  R18     
 E  R19     
 E  R20     
 E  R21     
 E  R22     
 E  R23     
 E  R24     
 E  R25     
 E  R26     
COLUMNS
    MARKER    'MARKER'                 'INTORG'
    I0(9)     OBJ       -149
    I0(9)     R0        -19
    I0(9)     R1        -135
    I0(9)     R5        15
    I0(9)     R6        11
    I0(9)     R7        8
    I0(9)     R10       -1
    I0(9)     R11       1
    I0(9)     R13       13
    I0(9)     R26       1
    I1(10)    OBJ       57
    I1(10)    R0        165
    I1(10)    R1        12
    I1(10)    R2        13
    I1(10)    R5        19
    I1(10)    R9        9
    I1(10)    R10       1
    I1(10)    R11       2
    I1(10)    R12       2
    I1(10)    R13       -1
    I1(10)    R26       1
    I2(9)     OBJ       -174
    I2(9)     R0        -50
    I2(9)     R1        184
    I2(9)     R3        16
    I2(9)     R7        7
    I2(9)     R8        11
    I2(9)     R9        16
    I2(9)     R11       17
    I2(9)     R13       11
    I2(9)     R26       1
    I3(8)     OBJ       140
    I3(8)     R0        57
    I3(8)     R1        127
    I3(8)     R4        16
    I3(8)     R9        1
    I3(8)     R11       7
    I3(8)     R12       10
    I3(8)     R13       2
    I3(8)     R26       1
    I4(9)     OBJ       -111
    I4(9)     R0        -172
    I4(9)     R1        17
    I4(9)     R3        -1
    I4(9)     R5        13
    I4(9)     R9        3
    I4(9)     R10       17
    I4(9)     R11       17
    I4(9)     R13       8
    I4(9)     R26       1
    I5(11)    OBJ       -122
    I5(11)    R0        54
    I5(11)    R1        101
    I5(11)    R3        12
    I5(11)    R5        13
    I5(11)    R6        10
    I5(11)    R8        9
    I5(11)    R9        2
    I5(11)    R10       8
    I5(11)    R11       18
    I5(11)    R13       3
    I5(11)    R26       1
    I6(11)    OBJ       186
    I6(11)    R0        -180
    I6(11)    R1        85
    I6(11)    R2        13
    I6(11)    R3        14
    I6(11)    R4        19
    I6(11)    R5        15
    I6(11)    R7        4
    I6(11)    R8        19
    I6(11)    R9        3
    I6(11)    R13       2
    I6(11)    R26       1
    I7(10)    OBJ       -170
    I7(10)    R0        187
    I7(10)    R1        31
    I7(10)    R2        13
    I7(10)    R3        18
    I7(10)    R5        14
    I7(10)    R9        16
    I7(10)    R10       17
    I7(10)    R11       7
    I7(10)    R12       19
    I7(10)    R26       1
    I8(6)     OBJ       96
    I8(6)     R0        81
    I8(6)     R1        -190
    I8(6)     R3        16
    I8(6)     R10       8
    I8(6)     R12       19
    I8(6)     R26       1
    I9(7)     OBJ       1
    I9(7)     R0        -69
    I9(7)     R1        104
    I9(7)     R2        9
    I9(7)     R4        18
    I9(7)     R7        9
    I9(7)     R12       5
    I9(7)     R26       1
    I10(8)    OBJ       178
    I10(8)    R0        -97
    I10(8)    R1        -99
    I10(8)    R3        4
    I10(8)    R4        17
    I10(8)    R7        8
    I10(8)    R10       1
    I10(8)    R13       15
    I10(8)    R26       1
    I11(11)   OBJ       199
    I11(11)   R0        4
    I11(11)   R1        -137
    I11(11)   R2        9
    I11(11)   R3        12
    I11(11)   R4        1
    I11(11)   R5        10
    I11(11)   R6        2
    I11(11)   R8        6
    I11(11)   R9        10
    I11(11)   R12       17
    I11(11)   R26       1
    MARKER    'MARKER'                 'INTEND'
    C12(12)   OBJ       3
    C12(12)   R1        1
    C12(12)   R2        7
    C12(12)   R3        11
    C12(12)   R4        10
    C12(12)   R5        16
    C12(12)   R7        3
    C12(12)   R8        19
    C12(12)   R15       14
    C12(12)   R16       3
    C12(12)   R17       14
    C12(12)   R21       5
    C12(12)   R25       16
    C13(13)   OBJ       8
    C13(13)   R0        5
    C13(13)   R1        8
    C13(13)   R5        9
    C13(13)   R6        3
    C13(13)   R9        8
    C13(13)   R11       19
    C13(13)   R12       10
    C13(13)   R14       7
    C13(13)   R16       14
    C13(13)   R18       13
    C13(13)   R19       2
    C13(13)   R23       5
    C13(13)   R25       4
    C14(9)    OBJ       -2
    C14(9)    R0        -10
    C14(9)    R1        -5
    C14(9)    R2        1
    C14(9)    R5        10
    C14(9)    R7        14
    C14(9)    R9        2
    C14(9)    R11       1
    C14(9)    R17       5
    C14(9)    R20       6
    C15(19)   OBJ       -8
    C15(19)   R0        8
    C15(19)   R1        -6
    C15(19)   R3        12
    C15(19)   R4        10
    C15(19)   R5        16
    C15(19)   R6        17
    C15(19)   R7        11
    C15(19)   R8        10
    C15(19)   R9        12
    C15(19)   R10       5
    C15(19)   R12       9
    C15(19)   R14       13
    C15(19)   R15       5
    C15(19)   R16       1
    C15(19)   R17       2
    C15(19)   R21       14
    C15(19)   R23       15
    C15(19)   R24       6
    C15(19)   R25       14
    C16(17)   OBJ       1
    C16(17)   R0        6
    C16(17)   R1        -4
    C16(17)   R2        1
    C16(17)   R3        4
    C16(17)   R5        10
    C16(17)   R7        -1
    C16(17)   R8        5
    C16(17)   R9        12
    C16(17)   R11       5
    C16(17)   R14       8
    C16(17)   R18       17
    C16(17)   R20       12
    C16(17)   R21       19
    C16(17)   R22       15
    C16(17)   R23       13
    C16(17)   R24       3
    C16(17)   R25       11
    C17(13)   OBJ       -8
    C17(13)   R0        -6
    C17(13)   R1        2
    C17(13)   R5        13
    C17(13)   R6        16
    C17(13)   R7        1
    C17(13)   R8        16
    C17(13)   R9        3
    C17(13)   R10       7
    C17(13)   R13       13
    C17(13)   R15       14
    C17(13)   R16       7
    C17(13)   R19       16
    C17(13)   R23       -1
    C18(11)   OBJ       6
    C18(11)   R0        7
    C18(11)   R1        1
    C18(11)   R2        2
    C18(11)   R3        15
    C18(11)   R8        4
    C18(11)   R12       -1
    C18(11)   R14       13
    C18(11)   R15       1
    C18(11)   R19       8
    C18(11)   R23       7
    C18(11)   R25       2
    C19(17)   OBJ       -7
    C19(17)   R0        -10
    C19(17)   R1        -9
    C19(17)   R2        1
    C19(17)   R3        12
    C19(17)   R5        -1
    C19(17)   R6        8
    C19(17)   R7        17
    C19(17)   R8        12
    C19(17)   R10       1
    C19(17)   R11       13
    C19(17)   R12       -1
    C19(17)   R13       10
    C19(17)   R16       18
    C19(17)   R17       16
    C19(17)   R20       13
    C19(17)   R21       9
    C19(17)   R22       19
    C20(15)   OBJ       -9
    C20(15)   R0        1
    C20(15)   R1        -4
    C20(15)   R2        19
    C20(15)   R3        15
    C20(15)   R6        15
    C20(15)   R7        7
    C20(15)   R11       14
    C20(15)   R12       17
    C20(15)   R13       19
    C20(15)   R14       9
    C20(15)   R17       -1
    C20(15)   R21       5
    C20(15)   R22       18
    C20(15)   R23       6
    C20(15)   R25       15
    C21(19)   OBJ       5
    C21(19)   R0        -3
    C21(19)   R1        8
    C21(19)   R2        15
    C21(19)   R3        1
    C21(19)   R4        16
    C21(19)   R5        12
    C21(19)   R7        6
    C21(19)   R8        8
    C21(19)   R9        10
    C21(19)   R13       7
    C21(19)   R14       16
    C21(19)   R17       16
    C21(19)   R18       9
    C21(19)   R19       5
    C21(19)   R20       5
    C21(19)   R21       6
    C21(19)   R22       8
    C21(19)   R24       1
    C21(19)   R25       13
    C22(14)   OBJ       -3
    C22(14)   R0        7
    C22(14)   R1        -3
    C22(14)   R3        17
    C22(14)   R4        18
    C22(14)   R6        14
    C22(14)   R9        9
    C22(14)   R10       8
    C22(14)   R14       14
    C22(14)   R15       14
    C22(14)   R17       13
    C22(14)   R19       15
    C22(14)   R23       18
    C22(14)   R24       17
    C22(14)   R25       12
    C23(14)   R0        3
    C23(14)   R1        -8
    C23(14)   R2        10
    C23(14)   R3        5
    C23(14)   R4        13
    C23(14)   R5        1
    C23(14)   R6        16
    C23(14)   R7        3
    C23(14)   R12       8
    C23(14)   R14       12
    C23(14)   R18       11
    C23(14)   R20       4
    C23(14)   R21       10
    C23(14)   R24       3
    C24(17)   OBJ       -7
    C24(17)   R0        -7
    C24(17)   R1        -10
    C24(17)   R2        12
    C24(17)   R3        11
    C24(17)   R4        19
    C24(17)   R5        1
    C24(17)   R8        5
    C24(17)   R9        6
    C24(17)   R12       7
    C24(17)   R14       14
    C24(17)   R15       9
    C24(17)   R16       15
    C24(17)   R19       1
    C24(17)   R21       7
    C24(17)   R22       10
    C24(17)   R23       10
    C24(17)   R25       6
    C25(1)    R2        1
    C26(1)    R3        1
    C27(1)    R4        1
    C28(1)    R5        1
    C29(1)    R6        1
    C30(1)    R7        1
    C31(1)    R8        1
    C32(1)    R9        1
    C33(1)    R10       1
    C34(1)    R11       1
    C35(1)    R12       1
    C36(1)    R13       1
    C37(1)    R14       1
    C38(1)    R15       1
    C39(1)    R16       1
    C40(1)    R17       1
    C41(1)    R18       1
    C42(1)    R19       1
    C43(1)    R20       1
    C44(1)    R21       1
    C45(1)    R22       1
    C46(1)    R23       1
    C47(1)    R24       1
    C48(1)    R25       1
    C49(1)    R26       1
RHS
    RHS1      R0        4.8734265734265648e+01
    RHS1      R1        2.6102797202797188e+02
    RHS1      R2        54
    RHS1      R3        55
    RHS1      R4        61
    RHS1      R5        59
    RHS1      R6        89
    RHS1      R7        81
    RHS1      R8        87
    RHS1      R9        77
    RHS1      R10       66
    RHS1      R11       58
    RHS1      R12       97
    RHS1      R13       60
    RHS1      R14       80
    RHS1      R15       62
    RHS1      R16       94
    RHS1      R17       86
    RHS1      R18       83
    RHS1      R19       52
    RHS1      R20       87
    RHS1      R21       74
    RHS1      R22       69
    RHS1      R23       69
    RHS1      R24       78
    RHS1      R25       95
    RHS1      R26       4
BOUNDS
 UP BND1      I0(9)     2
 UP BND1      I1(10)    2
 UP BND1      I2(9)     2
 UP BND1      I3(8)     2
 UP BND1      I4(9)     2
 UP BND1      I5(11)    2
 UP BND1      I6(11)    2
 UP BND1      I7(10)    2
 UP BND1      I8(6)     2
 UP BND1      I9(7)     2
 UP BND1      I10(8)    2
 UP BND1      I11(11)   2
ENDATA
